(set-logic QF_S)
(declare-fun PCTEMP_LHS_2_idx_0 () String)
(declare-fun var_0xINPUT_180019 () String)
(declare-fun T_6 () String)
(declare-fun T_4 () String)
(declare-fun PCTEMP_LHS_1 () String)
(declare-fun M1_2 () String)
(declare-fun P1_2 () String)
(declare-fun PCTEMP_LHS_1_idx_7 () String)
(declare-fun P0_8 () String)
(declare-fun P0_2 () String)
(declare-fun M0_8 () String)
(declare-fun M6_2 () String)
(declare-fun P3_2 () String)
(declare-fun T1_2 () String)
(declare-fun M0_2 () String)
(declare-fun M7_2 () String)
(declare-fun P2_2 () String)
(declare-fun M3_2 () String)
(declare-fun M4_2 () String)
(declare-fun P5_2 () String)
(declare-fun T0_2 () String)
(declare-fun T7_2 () String)
(declare-fun M5_2 () String)
(declare-fun T8_2 () String)
(declare-fun P6_2 () String)
(declare-fun PCTEMP_LHS_1_idx_8 () String)
(declare-fun M2_2 () String)
(declare-fun PCTEMP_LHS_1_idx_4 () String)
(declare-fun PCTEMP_LHS_1_idx_5 () String)
(declare-fun PCTEMP_LHS_1_idx_6 () String)
(declare-fun P4_2 () String)
(declare-fun PCTEMP_LHS_1_idx_0 () String)
(declare-fun PCTEMP_LHS_1_idx_1 () String)
(declare-fun PCTEMP_LHS_1_idx_2 () String)
(declare-fun PCTEMP_LHS_1_idx_3 () String)
(declare-fun T3_2 () String)
(declare-fun T4_2 () String)
(declare-fun T0_8 () String)
(declare-fun P7_2 () String)
(declare-fun T2_2 () String)
(declare-fun PCTEMP_LHS_2_idx_1 () String)
(declare-fun T6_2 () String)
(declare-fun T1_8 () String)
(declare-fun T5_2 () String)
(assert (and (= T8_2 PCTEMP_LHS_1_idx_8) (= T0_2 var_0xINPUT_180019) (= M7_2 ";") (not (in PCTEMP_LHS_1_idx_7 /;/)) (= P7_2 (concat PCTEMP_LHS_1_idx_7 M7_2)) (= T7_2 (concat P7_2 T8_2)) (= M6_2 ";") (not (in PCTEMP_LHS_1_idx_6 /;/)) (= P6_2 (concat PCTEMP_LHS_1_idx_6 M6_2)) (= T6_2 (concat P6_2 T7_2)) (= M5_2 ";") (not (in PCTEMP_LHS_1_idx_5 /;/)) (= P5_2 (concat PCTEMP_LHS_1_idx_5 M5_2)) (= T5_2 (concat P5_2 T6_2)) (= M4_2 ";") (not (in PCTEMP_LHS_1_idx_4 /;/)) (= P4_2 (concat PCTEMP_LHS_1_idx_4 M4_2)) (= T4_2 (concat P4_2 T5_2)) (= M3_2 ";") (not (in PCTEMP_LHS_1_idx_3 /;/)) (= P3_2 (concat PCTEMP_LHS_1_idx_3 M3_2)) (= T3_2 (concat P3_2 T4_2)) (= M2_2 ";") (not (in PCTEMP_LHS_1_idx_2 /;/)) (= P2_2 (concat PCTEMP_LHS_1_idx_2 M2_2)) (= T2_2 (concat P2_2 T3_2)) (= M1_2 ";") (not (in PCTEMP_LHS_1_idx_1 /;/)) (= P1_2 (concat PCTEMP_LHS_1_idx_1 M1_2)) (= T1_2 (concat P1_2 T2_2)) (= M0_2 ";") (not (in PCTEMP_LHS_1_idx_0 /;/)) (= P0_2 (concat PCTEMP_LHS_1_idx_0 M0_2)) (= T0_2 (concat P0_2 T1_2)) (= T_4 PCTEMP_LHS_1_idx_0) (= T1_8 PCTEMP_LHS_2_idx_1) (= T0_8 T_4) (= M0_8 "=") (not (in PCTEMP_LHS_2_idx_0 /=/)) (= P0_8 (concat PCTEMP_LHS_2_idx_0 M0_8)) (= T0_8 (concat P0_8 T1_8)) (= T_6 PCTEMP_LHS_2_idx_0) (= T_6 "BizographicData")))
(check-sat var_0xINPUT_180019)